instances/knapsack/discrete/knapsack_70_10.lp
\ Model knapsack_70_10
\ LP format - for model browsing. Use MPS format to capture full model detail.
\ Signature: 0x9699bb600e1f4c54
Minimize
  - 9 x[0] - 25 x[1] - 71 x[2] - 79 x[3] - 20 x[4] - 32 x[5] - 40 x[6]
   - 26 x[7] - 41 x[8] - 57 x[9] - 2 x[10] - 30 x[11] - 42 x[12] - 9 x[13]
   - 66 x[14] - 71 x[15] - 53 x[16] - 25 x[17] - 53 x[18] - 76 x[19]
   - 12 x[20] - 90 x[21] - 11 x[22] - 7 x[23] - 28 x[24] - 73 x[25]
   - 91 x[26] - 42 x[27] - 81 x[28] - 11 x[29] - 20 x[30] - 83 x[31]
   - 43 x[32] - 2 x[33] - 2 x[34] - 84 x[35] - 16 x[36] - 62 x[37]
   - 45 x[38] - 2 x[39] - 35 x[40] - 72 x[41] - 68 x[42] - 6 x[43]
   - 53 x[44] - 90 x[45] - 99 x[46] - 11 x[47] - 23 x[48] - 36 x[49]
   - 94 x[50] - 85 x[51] - 6 x[52] - 100 x[53] - 31 x[54] - 25 x[55]
   - 89 x[56] - 75 x[57] - 43 x[58] - 6 x[59] - 55 x[60] - 49 x[61]
   - 92 x[62] - 100 x[63] - 13 x[64] - 92 x[65] - 96 x[66] - 20 x[67]
   - 79 x[68] - 56 x[69]
Subject To
 primal_upper: 20 x[0] + 69 x[1] + 31 x[2] + 68 x[3] + 65 x[4] + 34 x[5]
   + 58 x[6] + 16 x[7] + 6 x[8] + 31 x[9] + 68 x[10] + 48 x[11] + 29 x[12]
   + x[13] + 69 x[14] + 9 x[15] + 18 x[16] + 5 x[17] + 50 x[18] + 3 x[19]
   + 66 x[20] + 92 x[21] + 53 x[22] + 47 x[23] + 69 x[24] + 81 x[25]
   + 67 x[26] + 68 x[27] + 70 x[28] + 48 x[29] + 42 x[30] + 52 x[31]
   + 16 x[32] + 66 x[33] + x[34] + 46 x[35] + 97 x[36] + 9 x[37] + 85 x[38]
   + 19 x[39] + 92 x[40] + 14 x[41] + 39 x[42] + 86 x[43] + 68 x[44]
   + 83 x[45] + 10 x[46] + 2 x[47] + 36 x[48] + 97 x[49] + 7 x[50]
   + 25 x[51] + 94 x[52] + 25 x[53] + 81 x[54] + 20 x[55] + 6 x[56]
   + 59 x[57] + 49 x[58] + 39 x[59] + 17 x[60] + 3 x[61] + 52 x[62]
   + 11 x[63] + 88 x[64] + 69 x[65] + x[66] + 3 x[67] + 53 x[68] + 74 x[69]
   + 2 r[0] + 6.9 r[1] + 3.1 r[2] + 6.8 r[3] + 6.5 r[4] + 3.4 r[5]
   + 5.8 r[6] + 1.6 r[7] + 0.6 r[8] + 3.1 r[9] + 6.8 r[10] + 4.8 r[11]
   + 2.9 r[12] + 0.1 r[13] + 6.9 r[14] + 0.9 r[15] + 1.8 r[16] + 0.5 r[17]
   + 5 r[18] + 0.3 r[19] + 6.6 r[20] + 9.2 r[21] + 5.3 r[22] + 4.7 r[23]
   + 6.9 r[24] + 8.1 r[25] + 6.7 r[26] + 6.8 r[27] + 7 r[28] + 4.8 r[29]
   + 4.2 r[30] + 5.2 r[31] + 1.6 r[32] + 6.6 r[33] + 0.1 r[34] + 4.6 r[35]
   + 9.7 r[36] + 0.9 r[37] + 8.5 r[38] + 1.9 r[39] + 9.2 r[40] + 1.4 r[41]
   + 3.9 r[42] + 8.6 r[43] + 6.8 r[44] + 8.3 r[45] + r[46] + 0.2 r[47]
   + 3.6 r[48] + 9.7 r[49] + 0.7 r[50] + 2.5 r[51] + 9.4 r[52] + 2.5 r[53]
   + 8.1 r[54] + 2 r[55] + 0.6 r[56] + 5.9 r[57] + 4.9 r[58] + 3.9 r[59]
   + 1.7 r[60] + 0.3 r[61] + 5.2 r[62] + 1.1 r[63] + 8.8 r[64] + 6.9 r[65]
   + 0.1 r[66] + 0.3 r[67] + 5.3 r[68] + 7.4 r[69] <= 294
 primal_lower: 0.1494926562272413 x[0] + 1.890095991378772 x[1]
   + 2.809513900841188 x[2] + 1.963252487469032 x[3]
   + 3.609452348601045 x[4] + 1.853144630390765 x[5]
   + 1.477889850918596 x[6] + 2.732537293700828 x[7]
   + 3.052322987463866 x[8] + 4.733849245757274 x[9]
   + 1.913834818315129 x[10] + 3.737538020750334 x[11]
   + 0.2911187337708368 x[12] + 4.677335681329899 x[13]
   + 2.29205500306363 x[14] + 3.29929129693717 x[15]
   + 2.345146646580036 x[16] + 0.7587535917766663 x[17]
   + 2.281441092169906 x[18] + 3.189818002766374 x[19]
   + 0.6914660945546522 x[20] + 4.403877682516672 x[21]
   + 1.884916864095599 x[22] + 0.9969203831969983 x[23]
   + 0.6139411232453222 x[24] + 4.075890158092253 x[25]
   + 4.521955256355337 x[26] + 0.951301854462122 x[27]
   + 1.519266019710832 x[28] + 3.164220696195163 x[29]
   + 3.319374713576626 x[30] + 3.299460162650108 x[31]
   + 2.246966451883944 x[32] + 2.855438720314534 x[33]
   + 1.278200478248043 x[34] + 2.548817578946829 x[35]
   + 0.360478667312063 x[36] + 3.010287590470662 x[37]
   + 0.6635293183696854 x[38] + 0.3820441954580585 x[39]
   + 3.161351423690282 x[40] + 3.804482102234827 x[41]
   + 4.18266948305252 x[42] + 3.110887481903689 x[43]
   + 1.400702477974926 x[44] + 2.358935794715477 x[45]
   + 1.866072439014854 x[46] + 0.1016466129069493 x[47]
   + 0.0155113389270714 x[48] + 0.6261790761202798 x[49]
   + 0.8306018573582059 x[50] + 2.04788637172136 x[51]
   + 3.717453122607676 x[52] + 4.763414136139535 x[53]
   + 0.2315680510104088 x[54] + 3.27558028217491 x[55]
   + 4.323538669720936 x[56] + 2.692437110009032 x[57]
   + 1.880795664179594 x[58] + 2.690710630989001 x[59]
   + 2.558686323823642 x[60] + 0.4062049094786106 x[61]
   + 1.832854421240829 x[62] + 2.676014226790893 x[63]
   + 2.614298886178122 x[64] + 2.232936020074594 x[65]
   + 2.772978437798022 x[66] + 3.200871317913686 x[67]
   + 3.799166052074006 x[68] + 1.67662146774799 x[69] + 99 u[0] + 39 u[1]
   + 69 u[2] + 38 u[3] + 67 u[4] + 81 u[5] + 12 u[6] + 23 u[7] + 20 u[8]
   + 81 u[9] + 27 u[10] + 34 u[11] + 15 u[12] + 75 u[13] + 60 u[14]
   + 64 u[15] + 40 u[16] + 91 u[17] + 76 u[18] + u[19] + 4 u[20] + 75 u[21]
   + 55 u[22] + 30 u[23] + 24 u[24] + 71 u[25] + 69 u[26] + 3 u[27]
   + 61 u[28] + 82 u[29] + 29 u[30] + 63 u[31] + 79 u[32] + 100 u[33]
   + 95 u[34] + 8 u[35] + 83 u[36] + 36 u[37] + 19 u[38] + 10 u[39]
   + 94 u[40] + 37 u[41] + 45 u[42] + 45 u[43] + 90 u[44] + 54 u[45]
   + 89 u[46] + 77 u[47] + 26 u[48] + 67 u[49] + 26 u[50] + 11 u[51]
   + 96 u[52] + 43 u[53] + 80 u[54] + 43 u[55] + 80 u[56] + 26 u[57]
   + 51 u[58] + 81 u[59] + 96 u[60] + 18 u[61] + 3 u[62] + 6 u[63]
   + 47 u[64] + 7 u[65] + 80 u[66] + 86 u[67] + 19 u[68] + 13 u[69]
   <= 91856
 mccormick1[0]: - u[0] + r[0] <= 0
 mccormick1[1]: - u[1] + r[1] <= 0
 mccormick1[2]: - u[2] + r[2] <= 0
 mccormick1[3]: - u[3] + r[3] <= 0
 mccormick1[4]: - u[4] + r[4] <= 0
 mccormick1[5]: - u[5] + r[5] <= 0
 mccormick1[6]: - u[6] + r[6] <= 0
 mccormick1[7]: - u[7] + r[7] <= 0
 mccormick1[8]: - u[8] + r[8] <= 0
 mccormick1[9]: - u[9] + r[9] <= 0
 mccormick1[10]: - u[10] + r[10] <= 0
 mccormick1[11]: - u[11] + r[11] <= 0
 mccormick1[12]: - u[12] + r[12] <= 0
 mccormick1[13]: - u[13] + r[13] <= 0
 mccormick1[14]: - u[14] + r[14] <= 0
 mccormick1[15]: - u[15] + r[15] <= 0
 mccormick1[16]: - u[16] + r[16] <= 0
 mccormick1[17]: - u[17] + r[17] <= 0
 mccormick1[18]: - u[18] + r[18] <= 0
 mccormick1[19]: - u[19] + r[19] <= 0
 mccormick1[20]: - u[20] + r[20] <= 0
 mccormick1[21]: - u[21] + r[21] <= 0
 mccormick1[22]: - u[22] + r[22] <= 0
 mccormick1[23]: - u[23] + r[23] <= 0
 mccormick1[24]: - u[24] + r[24] <= 0
 mccormick1[25]: - u[25] + r[25] <= 0
 mccormick1[26]: - u[26] + r[26] <= 0
 mccormick1[27]: - u[27] + r[27] <= 0
 mccormick1[28]: - u[28] + r[28] <= 0
 mccormick1[29]: - u[29] + r[29] <= 0
 mccormick1[30]: - u[30] + r[30] <= 0
 mccormick1[31]: - u[31] + r[31] <= 0
 mccormick1[32]: - u[32] + r[32] <= 0
 mccormick1[33]: - u[33] + r[33] <= 0
 mccormick1[34]: - u[34] + r[34] <= 0
 mccormick1[35]: - u[35] + r[35] <= 0
 mccormick1[36]: - u[36] + r[36] <= 0
 mccormick1[37]: - u[37] + r[37] <= 0
 mccormick1[38]: - u[38] + r[38] <= 0
 mccormick1[39]: - u[39] + r[39] <= 0
 mccormick1[40]: - u[40] + r[40] <= 0
 mccormick1[41]: - u[41] + r[41] <= 0
 mccormick1[42]: - u[42] + r[42] <= 0
 mccormick1[43]: - u[43] + r[43] <= 0
 mccormick1[44]: - u[44] + r[44] <= 0
 mccormick1[45]: - u[45] + r[45] <= 0
 mccormick1[46]: - u[46] + r[46] <= 0
 mccormick1[47]: - u[47] + r[47] <= 0
 mccormick1[48]: - u[48] + r[48] <= 0
 mccormick1[49]: - u[49] + r[49] <= 0
 mccormick1[50]: - u[50] + r[50] <= 0
 mccormick1[51]: - u[51] + r[51] <= 0
 mccormick1[52]: - u[52] + r[52] <= 0
 mccormick1[53]: - u[53] + r[53] <= 0
 mccormick1[54]: - u[54] + r[54] <= 0
 mccormick1[55]: - u[55] + r[55] <= 0
 mccormick1[56]: - u[56] + r[56] <= 0
 mccormick1[57]: - u[57] + r[57] <= 0
 mccormick1[58]: - u[58] + r[58] <= 0
 mccormick1[59]: - u[59] + r[59] <= 0
 mccormick1[60]: - u[60] + r[60] <= 0
 mccormick1[61]: - u[61] + r[61] <= 0
 mccormick1[62]: - u[62] + r[62] <= 0
 mccormick1[63]: - u[63] + r[63] <= 0
 mccormick1[64]: - u[64] + r[64] <= 0
 mccormick1[65]: - u[65] + r[65] <= 0
 mccormick1[66]: - u[66] + r[66] <= 0
 mccormick1[67]: - u[67] + r[67] <= 0
 mccormick1[68]: - u[68] + r[68] <= 0
 mccormick1[69]: - u[69] + r[69] <= 0
 mccormick2[0]: - x[0] + r[0] <= 0
 mccormick2[1]: - x[1] + r[1] <= 0
 mccormick2[2]: - x[2] + r[2] <= 0
 mccormick2[3]: - x[3] + r[3] <= 0
 mccormick2[4]: - x[4] + r[4] <= 0
 mccormick2[5]: - x[5] + r[5] <= 0
 mccormick2[6]: - x[6] + r[6] <= 0
 mccormick2[7]: - x[7] + r[7] <= 0
 mccormick2[8]: - x[8] + r[8] <= 0
 mccormick2[9]: - x[9] + r[9] <= 0
 mccormick2[10]: - x[10] + r[10] <= 0
 mccormick2[11]: - x[11] + r[11] <= 0
 mccormick2[12]: - x[12] + r[12] <= 0
 mccormick2[13]: - x[13] + r[13] <= 0
 mccormick2[14]: - x[14] + r[14] <= 0
 mccormick2[15]: - x[15] + r[15] <= 0
 mccormick2[16]: - x[16] + r[16] <= 0
 mccormick2[17]: - x[17] + r[17] <= 0
 mccormick2[18]: - x[18] + r[18] <= 0
 mccormick2[19]: - x[19] + r[19] <= 0
 mccormick2[20]: - x[20] + r[20] <= 0
 mccormick2[21]: - x[21] + r[21] <= 0
 mccormick2[22]: - x[22] + r[22] <= 0
 mccormick2[23]: - x[23] + r[23] <= 0
 mccormick2[24]: - x[24] + r[24] <= 0
 mccormick2[25]: - x[25] + r[25] <= 0
 mccormick2[26]: - x[26] + r[26] <= 0
 mccormick2[27]: - x[27] + r[27] <= 0
 mccormick2[28]: - x[28] + r[28] <= 0
 mccormick2[29]: - x[29] + r[29] <= 0
 mccormick2[30]: - x[30] + r[30] <= 0
 mccormick2[31]: - x[31] + r[31] <= 0
 mccormick2[32]: - x[32] + r[32] <= 0
 mccormick2[33]: - x[33] + r[33] <= 0
 mccormick2[34]: - x[34] + r[34] <= 0
 mccormick2[35]: - x[35] + r[35] <= 0
 mccormick2[36]: - x[36] + r[36] <= 0
 mccormick2[37]: - x[37] + r[37] <= 0
 mccormick2[38]: - x[38] + r[38] <= 0
 mccormick2[39]: - x[39] + r[39] <= 0
 mccormick2[40]: - x[40] + r[40] <= 0
 mccormick2[41]: - x[41] + r[41] <= 0
 mccormick2[42]: - x[42] + r[42] <= 0
 mccormick2[43]: - x[43] + r[43] <= 0
 mccormick2[44]: - x[44] + r[44] <= 0
 mccormick2[45]: - x[45] + r[45] <= 0
 mccormick2[46]: - x[46] + r[46] <= 0
 mccormick2[47]: - x[47] + r[47] <= 0
 mccormick2[48]: - x[48] + r[48] <= 0
 mccormick2[49]: - x[49] + r[49] <= 0
 mccormick2[50]: - x[50] + r[50] <= 0
 mccormick2[51]: - x[51] + r[51] <= 0
 mccormick2[52]: - x[52] + r[52] <= 0
 mccormick2[53]: - x[53] + r[53] <= 0
 mccormick2[54]: - x[54] + r[54] <= 0
 mccormick2[55]: - x[55] + r[55] <= 0
 mccormick2[56]: - x[56] + r[56] <= 0
 mccormick2[57]: - x[57] + r[57] <= 0
 mccormick2[58]: - x[58] + r[58] <= 0
 mccormick2[59]: - x[59] + r[59] <= 0
 mccormick2[60]: - x[60] + r[60] <= 0
 mccormick2[61]: - x[61] + r[61] <= 0
 mccormick2[62]: - x[62] + r[62] <= 0
 mccormick2[63]: - x[63] + r[63] <= 0
 mccormick2[64]: - x[64] + r[64] <= 0
 mccormick2[65]: - x[65] + r[65] <= 0
 mccormick2[66]: - x[66] + r[66] <= 0
 mccormick2[67]: - x[67] + r[67] <= 0
 mccormick2[68]: - x[68] + r[68] <= 0
 mccormick2[69]: - x[69] + r[69] <= 0
 mccormick3[0]: x[0] + u[0] - r[0] <= 1
 mccormick3[1]: x[1] + u[1] - r[1] <= 1
 mccormick3[2]: x[2] + u[2] - r[2] <= 1
 mccormick3[3]: x[3] + u[3] - r[3] <= 1
 mccormick3[4]: x[4] + u[4] - r[4] <= 1
 mccormick3[5]: x[5] + u[5] - r[5] <= 1
 mccormick3[6]: x[6] + u[6] - r[6] <= 1
 mccormick3[7]: x[7] + u[7] - r[7] <= 1
 mccormick3[8]: x[8] + u[8] - r[8] <= 1
 mccormick3[9]: x[9] + u[9] - r[9] <= 1
 mccormick3[10]: x[10] + u[10] - r[10] <= 1
 mccormick3[11]: x[11] + u[11] - r[11] <= 1
 mccormick3[12]: x[12] + u[12] - r[12] <= 1
 mccormick3[13]: x[13] + u[13] - r[13] <= 1
 mccormick3[14]: x[14] + u[14] - r[14] <= 1
 mccormick3[15]: x[15] + u[15] - r[15] <= 1
 mccormick3[16]: x[16] + u[16] - r[16] <= 1
 mccormick3[17]: x[17] + u[17] - r[17] <= 1
 mccormick3[18]: x[18] + u[18] - r[18] <= 1
 mccormick3[19]: x[19] + u[19] - r[19] <= 1
 mccormick3[20]: x[20] + u[20] - r[20] <= 1
 mccormick3[21]: x[21] + u[21] - r[21] <= 1
 mccormick3[22]: x[22] + u[22] - r[22] <= 1
 mccormick3[23]: x[23] + u[23] - r[23] <= 1
 mccormick3[24]: x[24] + u[24] - r[24] <= 1
 mccormick3[25]: x[25] + u[25] - r[25] <= 1
 mccormick3[26]: x[26] + u[26] - r[26] <= 1
 mccormick3[27]: x[27] + u[27] - r[27] <= 1
 mccormick3[28]: x[28] + u[28] - r[28] <= 1
 mccormick3[29]: x[29] + u[29] - r[29] <= 1
 mccormick3[30]: x[30] + u[30] - r[30] <= 1
 mccormick3[31]: x[31] + u[31] - r[31] <= 1
 mccormick3[32]: x[32] + u[32] - r[32] <= 1
 mccormick3[33]: x[33] + u[33] - r[33] <= 1
 mccormick3[34]: x[34] + u[34] - r[34] <= 1
 mccormick3[35]: x[35] + u[35] - r[35] <= 1
 mccormick3[36]: x[36] + u[36] - r[36] <= 1
 mccormick3[37]: x[37] + u[37] - r[37] <= 1
 mccormick3[38]: x[38] + u[38] - r[38] <= 1
 mccormick3[39]: x[39] + u[39] - r[39] <= 1
 mccormick3[40]: x[40] + u[40] - r[40] <= 1
 mccormick3[41]: x[41] + u[41] - r[41] <= 1
 mccormick3[42]: x[42] + u[42] - r[42] <= 1
 mccormick3[43]: x[43] + u[43] - r[43] <= 1
 mccormick3[44]: x[44] + u[44] - r[44] <= 1
 mccormick3[45]: x[45] + u[45] - r[45] <= 1
 mccormick3[46]: x[46] + u[46] - r[46] <= 1
 mccormick3[47]: x[47] + u[47] - r[47] <= 1
 mccormick3[48]: x[48] + u[48] - r[48] <= 1
 mccormick3[49]: x[49] + u[49] - r[49] <= 1
 mccormick3[50]: x[50] + u[50] - r[50] <= 1
 mccormick3[51]: x[51] + u[51] - r[51] <= 1
 mccormick3[52]: x[52] + u[52] - r[52] <= 1
 mccormick3[53]: x[53] + u[53] - r[53] <= 1
 mccormick3[54]: x[54] + u[54] - r[54] <= 1
 mccormick3[55]: x[55] + u[55] - r[55] <= 1
 mccormick3[56]: x[56] + u[56] - r[56] <= 1
 mccormick3[57]: x[57] + u[57] - r[57] <= 1
 mccormick3[58]: x[58] + u[58] - r[58] <= 1
 mccormick3[59]: x[59] + u[59] - r[59] <= 1
 mccormick3[60]: x[60] + u[60] - r[60] <= 1
 mccormick3[61]: x[61] + u[61] - r[61] <= 1
 mccormick3[62]: x[62] + u[62] - r[62] <= 1
 mccormick3[63]: x[63] + u[63] - r[63] <= 1
 mccormick3[64]: x[64] + u[64] - r[64] <= 1
 mccormick3[65]: x[65] + u[65] - r[65] <= 1
 mccormick3[66]: x[66] + u[66] - r[66] <= 1
 mccormick3[67]: x[67] + u[67] - r[67] <= 1
 mccormick3[68]: x[68] + u[68] - r[68] <= 1
 mccormick3[69]: x[69] + u[69] - r[69] <= 1
Bounds
Binaries
 x[0] x[1] x[2] x[3] x[4] x[5] x[6] x[7] x[8] x[9] x[10] x[11] x[12] x[13]
 x[14] x[15] x[16] x[17] x[18] x[19] x[20] x[21] x[22] x[23] x[24] x[25]
 x[26] x[27] x[28] x[29] x[30] x[31] x[32] x[33] x[34] x[35] x[36] x[37]
 x[38] x[39] x[40] x[41] x[42] x[43] x[44] x[45] x[46] x[47] x[48] x[49]
 x[50] x[51] x[52] x[53] x[54] x[55] x[56] x[57] x[58] x[59] x[60] x[61]
 x[62] x[63] x[64] x[65] x[66] x[67] x[68] x[69] u[0] u[1] u[2] u[3] u[4]
 u[5] u[6] u[7] u[8] u[9] u[10] u[11] u[12] u[13] u[14] u[15] u[16] u[17]
 u[18] u[19] u[20] u[21] u[22] u[23] u[24] u[25] u[26] u[27] u[28] u[29]
 u[30] u[31] u[32] u[33] u[34] u[35] u[36] u[37] u[38] u[39] u[40] u[41]
 u[42] u[43] u[44] u[45] u[46] u[47] u[48] u[49] u[50] u[51] u[52] u[53]
 u[54] u[55] u[56] u[57] u[58] u[59] u[60] u[61] u[62] u[63] u[64] u[65]
 u[66] u[67] u[68] u[69] r[0] r[1] r[2] r[3] r[4] r[5] r[6] r[7] r[8] r[9]
 r[10] r[11] r[12] r[13] r[14] r[15] r[16] r[17] r[18] r[19] r[20] r[21]
 r[22] r[23] r[24] r[25] r[26] r[27] r[28] r[29] r[30] r[31] r[32] r[33]
 r[34] r[35] r[36] r[37] r[38] r[39] r[40] r[41] r[42] r[43] r[44] r[45]
 r[46] r[47] r[48] r[49] r[50] r[51] r[52] r[53] r[54] r[55] r[56] r[57]
 r[58] r[59] r[60] r[61] r[62] r[63] r[64] r[65] r[66] r[67] r[68] r[69]
End
