instances/knapsack/discrete_knapsack_uncertainty/knapsack_70_10.kp
42295
70
294

20 2.0 9
69 6.9 25
31 3.1 71
68 6.8 79
65 6.5 20
34 3.4 32
58 5.8 40
16 1.6 26
6 0.6 41
31 3.1 57
68 6.8 2
48 4.8 30
29 2.9 42
1 0.1 9
69 6.9 66
9 0.9 71
18 1.8 53
5 0.5 25
50 5.0 53
3 0.3 76
66 6.6 12
92 9.2 90
53 5.3 11
47 4.7 7
69 6.9 28
81 8.1 73
67 6.7 91
68 6.8 42
70 7.0 81
48 4.8 11
42 4.2 20
52 5.2 83
16 1.6 43
66 6.6 2
1 0.1 2
46 4.6 84
97 9.7 16
9 0.9 62
85 8.5 45
19 1.9 2
92 9.2 35
14 1.4 72
39 3.9 68
86 8.6 6
68 6.8 53
83 8.3 90
10 1.0 99
2 0.2 11
36 3.6 23
97 9.7 36
7 0.7 94
25 2.5 85
94 9.4 6
25 2.5 100
81 8.1 31
20 2.0 25
6 0.6 89
59 5.9 75
49 4.9 43
39 3.9 6
17 1.7 55
3 0.3 49
52 5.2 92
11 1.1 100
88 8.8 13
69 6.9 92
1 0.1 96
3 0.3 20
53 5.3 79
74 7.4 56

91856
337

[0.14949265622724128 1.8900959913787725 2.809513900841188 1.963252487469032 3.6094523486010446 1.8531446303907648 1.477889850918596 2.732537293700828 3.0523229874638664 4.733849245757274 1.9138348183151288 3.737538020750334 0.2911187337708368 4.6773356813298985 2.29205500306363 3.29929129693717 2.3451466465800364 0.7587535917766663 2.2814410921699064 3.1898180027663736 0.6914660945546522 4.403877682516672 1.8849168640955987 0.9969203831969983 0.6139411232453222 4.075890158092253 4.521955256355337 0.951301854462122 1.519266019710832 3.1642206961951627 3.319374713576626 3.2994601626501083 2.246966451883944 2.855438720314534 1.2782004782480432 2.5488175789468293 0.36047866731206296 3.0102875904706616 0.6635293183696854 0.38204419545805846 3.161351423690282 3.8044821022348274 4.18266948305252 3.1108874819036894 1.4007024779749255 2.358935794715477 1.8660724390148542 0.10164661290694928 0.015511338927071369 0.6261790761202798 0.8306018573582059 2.0478863717213596 3.7174531226076764 4.763414136139535 0.23156805101040884 3.27558028217491 4.323538669720936 2.6924371100090316 1.8807956641795938 2.6907106309890008 2.5586863238236424 0.4062049094786106 1.8328544212408286 2.676014226790893 2.614298886178122 2.232936020074594 2.7729784377980224 3.2008713179136863 3.7991660520740065 1.6766214677479905]

[99 39 69 38 67 81 12 23 20 81 27 34 15 75 60 64 40 91 76 1 4 75 55 30 24 71 69 3 61 82 29 63 79 100 95 8 83 36 19 10 94 37 45 45 90 54 89 77 26 67 26 11 96 43 80 43 80 26 51 81 96 18 3 6 47 7 80 86 19 13]
